 U  O 
 1.0000000000000000
    10.9793151070882722    0.0000000000000000    0.0000000000000000
     0.0000000000000000   10.9317193766348808    0.0000000000000000
     0.0000000000000000    0.0000000000000000   10.9186205516571579
 U   O  
  32  64
Cartesian
 11.2701263917593515 11.1302166088755250  0.2866857673819996
 11.3277450423561419  3.0117738156973788  2.6103081076062238
  2.9404042412098517  0.2589458444788578  2.6414667023059177
  3.1003253976785756  2.8350620339849799 -0.1289015758638269
  5.4057761708377319  0.0895881856358741 -0.0186252556309821
  5.9957581401948445  2.9941554762667146  2.5933960337618078
  8.1898722030402507 -0.3331971695275759  2.5838706889472207
  8.4365303106499603  2.4865279397022189 10.7560146940117018
 11.1386215562607624  5.8554312450523902  0.3187698376946317
 11.0290194401841131  8.2991040622365979  2.7168404259025665
  3.0658431303443803  5.3635569402586345  2.2524211545182964
  2.6522607959215310  8.5162001681140787 11.0561952117165596
  5.6955684665133743  5.6933359009900970 11.0202639436084944
  5.5142472035006334  8.0153230334453838  2.8611380585346731
  8.0618775001655276  5.3102052074226194  2.8858745830835901
  8.1750044404658784  8.2321929020161626 10.8375355019189108
  0.0946494456503717 10.8704402998053098  5.4053096866034283
 -0.3046722166321766  2.6201808513091867  8.1407396105363965
  2.5284626337771101  0.0013011645432451  8.4498749083172378
  2.9931243302688606  2.7951453538262849  5.2125495161928672
  5.0037390235666637 -0.0292097645874120  5.7944589680806677
  5.6340714218630952  2.6323833012595448  8.5786634948425338
  7.9471026950851575 -0.0685034841376926  8.0784136418667565
  8.4979720763567030  2.5570847220086015  5.1089121599962635
 11.0239868966076475  5.3363508479546509  5.6937504991437171
 10.7663421205929986  8.3077194450702834  8.0775054762985938
  2.7875702807959057  5.1244710776182707  8.1664400390795393
  2.4967469391084287  8.2299006545419005  5.5540849910718224
  5.3927206101947878  5.1620483411664253  5.4526504321943596
  5.0539668631636001  8.1019387913027323  8.1230217632999295
  8.4501763410126536  5.4688102003846346  8.3401634526825550
  8.0722871484377343  8.4402386546876969  5.2873267320472825
  1.7962608788030519  1.7010522459600417  1.7279498186165527
  4.2894946658463979  4.5557226962616877  3.9732624962854324
  4.9779233331107315  4.3276337906639331  1.1855972749667694
  1.1224922628188125  1.9544883369288066  4.7474319841598049
  3.8267623829756636  1.5132218567479374  4.0518017310048711
  1.2839926545730398  4.2664482380469684  1.0151248555663193
  1.3835154555093903  4.7094029868390654  3.7208031198675444
  4.1340755044933051  1.3158540920508501  1.1711865347452071
  6.9855493225645722  1.3050833488123070  1.0003004504009207
  9.8934678051441391  4.1831778470795049  4.3441537548488416
 10.0579421218639240  4.5523374771254694  1.2823862516808138
  7.1400096867343308  1.2873932856865178  4.0637999170789438
  9.8576760709109887  1.1691594350305536  4.0779829634776137
  7.5016336536093178  3.7777802714882851  1.1890181266121265
  6.8609962314245303  3.8320533242204018  4.4397957878346945
 10.2312575869974367  1.6216703415437541  1.0501732905109302
  1.7253981347248726  6.8802455389544503  1.8470135928937303
  3.7458223056729349  9.8473199144635153  4.3247617633125257
  1.0809822308131867  9.4885823485896026  1.2994806186478307
  0.5739757187823181  7.7593616199779714  4.8438691091859480
  3.8114110589314354  6.8243503697933878  3.6336271014552972
 -1.4720232327862492  9.8478747961225679  1.2154631591775293
  1.4206212138966674  9.9867803429932884  3.6920634087039081
  4.2633471162503014  7.0973723106380229  0.8825780553372132
  7.0056733734194214  6.8483560042883225  1.6349106281152654
  9.5719289318602758  9.2821037694733164  4.0145410911864978
  6.8442018450424564  9.6093723248625444  1.2192017612529740
  6.7455146474304470  6.5268121428456860  4.4748055388735333
  9.2597894777044090  6.8565946754222713  3.9103692134562675
  3.9579773027453982  9.6353828613667183  1.5931728939438785
  6.4361499353767906  9.5630463709432441  4.1536608760011244
  9.7587474498884141  7.4314978879674856  1.0242964987870500
  1.2242345172689435  1.0041382180060028  7.0962753374440526
  4.2196146177413150  4.0361836581289348  9.6375935346791266
  4.4433326592467610  3.6670995817557830  6.8583689113702331
  1.1431999252363969  1.6625289701579071  9.8463140897969073
  4.1573692425190583  1.1977134188324123  9.4077315020838412
  1.5469692416596761  3.9853658089419599  6.4653327869107216
  1.1329003827486557  4.0112172913317572  8.9374357054912235
  3.7109898782064299  0.9271213127434056  6.8862265155711553
  6.2514238462388478  1.3017811516691764  6.9299434095325401
  9.7383364622015023  3.8855618035277550  9.4748533308059439
  9.9353685404257437  3.8309095032163989  6.5059628079732637
  7.0618230850452290  1.5549614272193621  9.5517088801113541
  9.6827678165543425  1.2209434523738940  9.2717909903058420
  7.0314566550274593  3.6493206698605039  7.2011743770792993
  7.1309371177671474  4.0348275562741023  9.7030180356216285
  9.1598792115335996  1.2274681402304726  6.5226773041080550
  0.7290099120082709  6.5107794026387893  7.6224396004293791
  3.7043684608797376  9.4343567730786333  9.6835040577208638
  4.1568899226720077  9.3659351266797302  6.7532389996073690
  1.7855987498475885  6.2324294193169072 10.2227748814198520
  4.0018224950961834  6.6173375118046094  9.1089001233021349
  1.5401804195444782  9.5939196758106142  6.7312567437126596
  1.0562927077397215  8.9906585086463657  9.5854092817781407
  3.3457396540658073  6.2973952548882801  6.3415880682881500
  5.7022851894798636  6.1862054323305911  6.9577107030563798
  9.1398991551226860  9.5569080666951578  9.1755185451229959
  9.5687095586937723  9.7269917234486698  6.6328101487828555
  6.9281160375703239  6.9092468465549803  9.8533092364968322
  9.6509995126409311  6.8021584411912457  9.2604457183513382
  6.9132447519380271  9.1099799703499968  6.6736727952132311
  6.7772030554004488  9.3031911858927288  9.3608161053685421
  9.0423836597194391  6.7503657355496758  6.7917067274085747
